200
1000
700
696
696
688
687
684
683
678
676
668
661
661
659
659
659
658
657
656
653
651
649
648
647
643
641
641
637
636
627
627
623
621
618
617
614
613
612
608
606
603
602
602
602
601
596
580
574
570
566
565
564
559
559
558
558
556
550
547
546
546
544
544
540
537
530
528
527
526
525
522
521
521
518
516
515
512
510
507
506
501
496
494
491
489
485
484
480
476
474
472
470
467
467
466
464
458
455
452
451
440
438
435
429
422
418
413
410
406
404
398
380
376
375
373
368
367
362
361
358
357
355
353
350
349
349
344
343
343
342
339
334
321
320
312
308
307
300
299
296
288
286
285
285
282
275
265
262
257
252
251
250
241
239
238
236
230
228
225
225
223
220
219
216
216
212
207
196
189
187
182
181
180
167
165
158
156
156
155
154
153
152
149
144
144
138
134
133
131
127
126
126
123
117
117
117
116
115
107
101
101
